40
1 0 3
2 0 4
2 1 8
3 0 10
3 1 3
3 2 8
4 0 4
4 1 6
4 2 7
4 3 8
5 0 2
5 1 9
5 2 4
5 3 2
5 4 3
6 0 9
6 1 8
6 2 7
6 3 7
6 4 9
6 5 4
7 0 3
7 1 5
7 2 7
7 3 4
7 4 7
7 5 10
7 6 9
8 0 1
8 1 3
8 2 1
8 3 2
8 4 6
8 5 8
8 6 1
8 7 5
9 0 3
9 1 7
9 2 3
9 3 3
9 4 6
9 5 4
9 6 8
9 7 8
9 8 4
10 0 4
10 1 4
10 2 3
10 3 10
10 4 3
10 5 9
10 6 9
10 7 1
10 8 3
10 9 9
11 0 6
11 1 3
11 2 4
11 3 3
11 4 7
11 5 8
11 6 8
11 7 8
11 8 9
11 9 1
11 10 2
12 0 9
12 1 4
12 2 1
12 3 2
12 4 1
12 5 7
12 6 10
12 7 9
12 8 10
12 9 8
12 10 10
12 11 4
13 0 8
13 1 7
13 2 3
13 3 9
13 4 9
13 5 9
13 6 10
13 7 5
13 8 4
13 9 6
13 10 10
13 11 3
13 12 2
14 0 1
14 1 6
14 2 10
14 3 2
14 4 3
14 5 10
14 6 10
14 7 1
14 8 5
14 9 8
14 10 3
14 11 10
14 12 5
14 13 1
15 0 7
15 1 1
15 2 9
15 3 6
15 4 8
15 5 8
15 6 1
15 7 10
15 8 8
15 9 6
15 10 9
15 11 10
15 12 5
15 13 3
15 14 1
16 0 2
16 1 9
16 2 7
16 3 3
16 4 10
16 5 9
16 6 5
16 7 9
16 8 2
16 9 4
16 10 1
16 11 4
16 12 5
16 13 4
16 14 7
16 15 5
17 0 3
17 1 4
17 2 3
17 3 4
17 4 8
17 5 5
17 6 8
17 7 6
17 8 5
17 9 10
17 10 4
17 11 10
17 12 3
17 13 4
17 14 1
17 15 1
17 16 2
18 0 10
18 1 4
18 2 9
18 3 9
18 4 5
18 5 7
18 6 3
18 7 7
18 8 4
18 9 10
18 10 9
18 11 10
18 12 2
18 13 5
18 14 7
18 15 6
18 16 1
18 17 5
19 0 10
19 1 6
19 2 8
19 3 2
19 4 8
19 5 9
19 6 6
19 7 7
19 8 1
19 9 2
19 10 7
19 11 9
19 12 4
19 13 2
19 14 8
19 15 4
19 16 6
19 17 2
19 18 5
20 0 10
20 1 1
20 2 3
20 3 10
20 4 4
20 5 4
20 6 4
20 7 3
20 8 5
20 9 6
20 10 6
20 11 10
20 12 5
20 13 4
20 14 8
20 15 7
20 16 4
20 17 3
20 18 6
20 19 4
21 0 1
21 1 4
21 2 5
21 3 7
21 4 1
21 5 8
21 6 7
21 7 9
21 8 7
21 9 9
21 10 4
21 11 1
21 12 6
21 13 3
21 14 5
21 15 10
21 16 3
21 17 2
21 18 8
21 19 5
21 20 6
22 0 1
22 1 1
22 2 3
22 3 3
22 4 1
22 5 4
22 6 1
22 7 7
22 8 1
22 9 1
22 10 6
22 11 4
22 12 5
22 13 8
22 14 3
22 15 2
22 16 2
22 17 10
22 18 8
22 19 1
22 20 4
22 21 1
23 0 7
23 1 4
23 2 2
23 3 10
23 4 9
23 5 2
23 6 3
23 7 3
23 8 1
23 9 10
23 10 8
23 11 4
23 12 8
23 13 10
23 14 3
23 15 6
23 16 4
23 17 7
23 18 4
23 19 5
23 20 6
23 21 10
23 22 3
24 0 1
24 1 7
24 2 2
24 3 8
24 4 1
24 5 9
24 6 7
24 7 1
24 8 10
24 9 3
24 10 7
24 11 4
24 12 9
24 13 1
24 14 6
24 15 10
24 16 9
24 17 9
24 18 8
24 19 1
24 20 4
24 21 3
24 22 5
24 23 10
25 0 6
25 1 7
25 2 4
25 3 5
25 4 3
25 5 3
25 6 7
25 7 6
25 8 7
25 9 9
25 10 5
25 11 10
25 12 1
25 13 3
25 14 7
25 15 4
25 16 4
25 17 6
25 18 7
25 19 7
25 20 5
25 21 1
25 22 8
25 23 7
25 24 9
26 0 4
26 1 8
26 2 6
26 3 1
26 4 7
26 5 9
26 6 3
26 7 6
26 8 8
26 9 3
26 10 1
26 11 10
26 12 3
26 13 10
26 14 9
26 15 7
26 16 5
26 17 4
26 18 1
26 19 1
26 20 7
26 21 8
26 22 3
26 23 8
26 24 9
26 25 10
27 0 4
27 1 8
27 2 8
27 3 10
27 4 3
27 5 10
27 6 10
27 7 10
27 8 9
27 9 1
27 10 2
27 11 3
27 12 4
27 13 1
27 14 3
27 15 8
27 16 1
27 17 7
27 18 1
27 19 7
27 20 5
27 21 6
27 22 1
27 23 9
27 24 10
27 25 9
27 26 10
28 0 2
28 1 5
28 2 4
28 3 9
28 4 9
28 5 10
28 6 4
28 7 9
28 8 1
28 9 1
28 10 6
28 11 1
28 12 4
28 13 9
28 14 5
28 15 4
28 16 4
28 17 9
28 18 3
28 19 10
28 20 7
28 21 2
28 22 7
28 23 9
28 24 3
28 25 1
28 26 1
28 27 5
29 0 2
29 1 5
29 2 2
29 3 3
29 4 10
29 5 8
29 6 2
29 7 10
29 8 4
29 9 1
29 10 10
29 11 4
29 12 8
29 13 2
29 14 7
29 15 4
29 16 7
29 17 1
29 18 3
29 19 3
29 20 5
29 21 8
29 22 8
29 23 9
29 24 3
29 25 8
29 26 6
29 27 1
29 28 5
30 0 5
30 1 7
30 2 7
30 3 4
30 4 3
30 5 9
30 6 9
30 7 9
30 8 8
30 9 4
30 10 2
30 11 9
30 12 7
30 13 10
30 14 3
30 15 9
30 16 5
30 17 10
30 18 6
30 19 7
30 20 5
30 21 5
30 22 10
30 23 4
30 24 8
30 25 1
30 26 4
30 27 8
30 28 2
30 29 2
31 0 6
31 1 6
31 2 1
31 3 2
31 4 1
31 5 3
31 6 6
31 7 2
31 8 4
31 9 8
31 10 6
31 11 8
31 12 7
31 13 4
31 14 2
31 15 5
31 16 1
31 17 5
31 18 1
31 19 6
31 20 4
31 21 2
31 22 8
31 23 2
31 24 2
31 25 8
31 26 5
31 27 5
31 28 3
31 29 9
31 30 8
32 0 9
32 1 5
32 2 4
32 3 7
32 4 8
32 5 6
32 6 9
32 7 7
32 8 6
32 9 7
32 10 9
32 11 4
32 12 1
32 13 7
32 14 7
32 15 7
32 16 4
32 17 6
32 18 9
32 19 9
32 20 4
32 21 7
32 22 4
32 23 10
32 24 6
32 25 7
32 26 8
32 27 3
32 28 8
32 29 2
32 30 5
32 31 3
33 0 8
33 1 4
33 2 2
33 3 10
33 4 1
33 5 10
33 6 9
33 7 5
33 8 4
33 9 6
33 10 5
33 11 1
33 12 8
33 13 7
33 14 10
33 15 2
33 16 5
33 17 4
33 18 10
33 19 4
33 20 10
33 21 3
33 22 10
33 23 7
33 24 4
33 25 4
33 26 1
33 27 8
33 28 4
33 29 5
33 30 4
33 31 5
33 32 8
34 0 8
34 1 3
34 2 4
34 3 5
34 4 9
34 5 9
34 6 7
34 7 4
34 8 3
34 9 7
34 10 3
34 11 5
34 12 4
34 13 9
34 14 5
34 15 10
34 16 10
34 17 2
34 18 6
34 19 10
34 20 3
34 21 4
34 22 3
34 23 10
34 24 9
34 25 2
34 26 8
34 27 7
34 28 5
34 29 2
34 30 1
34 31 7
34 32 2
34 33 10
35 0 6
35 1 2
35 2 8
35 3 4
35 4 7
35 5 6
35 6 5
35 7 10
35 8 5
35 9 2
35 10 6
35 11 8
35 12 7
35 13 2
35 14 7
35 15 1
35 16 1
35 17 4
35 18 4
35 19 5
35 20 1
35 21 4
35 22 9
35 23 8
35 24 7
35 25 3
35 26 10
35 27 2
35 28 4
35 29 7
35 30 9
35 31 6
35 32 5
35 33 1
35 34 5
36 0 9
36 1 8
36 2 7
36 3 3
36 4 9
36 5 10
36 6 10
36 7 2
36 8 6
36 9 9
36 10 10
36 11 10
36 12 10
36 13 1
36 14 1
36 15 9
36 16 5
36 17 2
36 18 5
36 19 1
36 20 5
36 21 2
36 22 8
36 23 7
36 24 10
36 25 3
36 26 1
36 27 5
36 28 10
36 29 1
36 30 8
36 31 4
36 32 5
36 33 7
36 34 1
36 35 6
37 0 8
37 1 4
37 2 9
37 3 5
37 4 4
37 5 9
37 6 9
37 7 7
37 8 4
37 9 10
37 10 8
37 11 5
37 12 5
37 13 6
37 14 4
37 15 8
37 16 5
37 17 9
37 18 4
37 19 1
37 20 6
37 21 1
37 22 6
37 23 1
37 24 3
37 25 3
37 26 6
37 27 10
37 28 2
37 29 1
37 30 10
37 31 4
37 32 2
37 33 7
37 34 2
37 35 4
37 36 1
38 0 1
38 1 2
38 2 9
38 3 10
38 4 2
38 5 8
38 6 4
38 7 9
38 8 7
38 9 1
38 10 3
38 11 10
38 12 5
38 13 6
38 14 10
38 15 10
38 16 9
38 17 8
38 18 10
38 19 2
38 20 3
38 21 6
38 22 6
38 23 2
38 24 4
38 25 7
38 26 5
38 27 10
38 28 2
38 29 5
38 30 6
38 31 3
38 32 4
38 33 10
38 34 6
38 35 3
38 36 4
38 37 8
39 0 6
39 1 4
39 2 4
39 3 3
39 4 1
39 5 3
39 6 3
39 7 8
39 8 2
39 9 2
39 10 4
39 11 7
39 12 6
39 13 6
39 14 5
39 15 4
39 16 5
39 17 8
39 18 4
39 19 7
39 20 10
39 21 4
39 22 9
39 23 9
39 24 4
39 25 5
39 26 7
39 27 8
39 28 2
39 29 9
39 30 7
39 31 10
39 32 10
39 33 5
39 34 6
39 35 9
39 36 1
39 37 3
39 38 3
